objective value:                                  866
delta[0,22]*                                        4 	(obj:116)
delta[0,36]*                                        5 	(obj:40)
delta[0,42]*                                        1 	(obj:72)
delta[1,43]*                                       10 	(obj:13)
mu[0,22,22]*                         3.18439716312057 	(obj:0)
mu[0,36,36]*                                        5 	(obj:0)
mu[0,42,42]*                         0.65875098741929 	(obj:0)
mu[1,43,43]*                                       10 	(obj:0)
